************************************************************************
file with basedata            : n/a
initial value random generator: n/a
************************************************************************
projects                      :  1
jobs (incl. supersource/sink ):  32
horizon                       :  180
RESOURCES
  - renewable                 :  4   R
  - nonrenewable              :  0   N
  - doubly constrained        :  0   D
************************************************************************
PROJECT INFORMATION:
pronr.  #jobs rel.date duedate tardcost  MPM-Time
    1     30      0       55        0       55
************************************************************************
PRECEDENCE RELATIONS:
jobnr.    #modes  #successors   successors
   1        1          3           2   3   4
   2        1          3           5   8  10
   3        1          2          17  29
   4        1          3           6   7  17
   5        1          3           7  18  22
   6        1          3          11  12  13
   7        1          1           9
   8        1          3          14  25  29
   9        1          2          11  19
  10        1          3          16  20  26
  11        1          1          20
  12        1          3          21  23  27
  13        1          3          14  15  24
  14        1          2          20  31
  15        1          2          25  30
  16        1          2          23  27
  17        1          1          21
  18        1          1          19
  19        1          1          24
  20        1          1          23
  21        1          3          22  24  25
  22        1          1          28
  23        1          1          28
  24        1          1          28
  25        1          1          31
  26        1          2          27  29
  27        1          2          30  31
  28        1          1          30
  29        1          1          32
  30        1          1          32
  31        1          1          32
  32        1          0        
************************************************************************
REQUESTS/DURATIONS:
jobnr. mode duration  R 1  R 2  R 3  R 4
------------------------------------------------------------------------
  1      1     0    
  2      1     6       1   0   1   1   1   1
                       6   0   6   6   6   6
                       8   0   8   8   8   8
                       6   0   6   6   6   6
  3      1     7       4   4   4   4   4   4   4
                       7   7   7   7   7   7   7
                       7   7   7   7   7   7   7
                       4   4   4   4   4   4   4
  4      1     6       5   5   5   5   5   5
                       4   4   4   4   4   4
                       1   1   1   1   1   1
                       7   7   7   7   7   7
  5      1     4       6   6   6   6
                      10  10  10  10
                       3   3   3   3
                       9   9   9   9
  6      1     7       4   4   4   4   4   4   4
                       9   9   9   9   9   9   9
                       8   8   8   8   8   8   8
                       3   3   3   3   3   3   3
  7      1     6      10  10  10  10  10  10
                       2   2   2   2   2   2
                       2   2   2   2   2   2
                       5   5   5   5   5   5
  8      1     7       3   3   3   3   3   3   3
                       6   6   6   6   6   6   6
                       1   1   1   1   1   1   1
                       5   5   5   5   5   5   5
  9      1     8       2   2   2   2   2   2   2   2
                       9   9   9   9   9   9   9   9
                       1   1   1   1   1   1   1   1
                       2   2   2   2   2   2   2   2
 10      1     7       4   4   4   4   4   4   4
                       3   3   3   3   3   3   3
                       2   2   2   2   2   2   2
                       3   3   3   3   3   3   3
 11      1     9       3   3   3   3   3   3   3   3   0
                      10  10  10  10  10  10  10  10   0
                       3   3   3   3   3   3   3   3   0
                       8   8   8   8   8   8   8   8   0
 12      1     5       3   0   3   3   0
                       2   0   2   2   0
                       1   0   1   1   0
                       4   0   4   4   0
 13      1     9       2   2   2   0   2   2   2   2   2
                       6   6   6   0   6   6   6   6   6
                       1   1   1   0   1   1   1   1   1
                       1   1   1   0   1   1   1   1   1
 14      1     7       4   4   4   4   4   4   4
                       1   1   1   1   1   1   1
                       6   6   6   6   6   6   6
                      10  10  10  10  10  10  10
 15      1     1       2
                       3
                       3
                       9
 16      1    10       9   9   9   9   9   9   9   9   9   9
                       1   1   1   1   1   1   1   1   1   1
                       7   7   7   7   7   7   7   7   7   7
                      10  10  10  10  10  10  10  10  10  10
 17      1     2       6   6
                       4   4
                       3   3
                       1   1
 18      1     6       2   2   2   2   2   2
                       3   3   3   3   3   3
                      10  10  10  10  10  10
                       9   9   9   9   9   9
 19      1    10       7   7   7   7   7   7   7   7   7   0
                       6   6   6   6   6   6   6   6   6   0
                      10  10  10  10  10  10  10  10  10   0
                       5   5   5   5   5   5   5   5   5   0
 20      1    10      10  10  10  10  10  10  10  10  10  10
                       5   5   5   5   5   5   5   5   5   5
                       4   4   4   4   4   4   4   4   4   4
                       4   4   4   4   4   4   4   4   4   4
 21      1     3       6   6   6
                       8   8   8
                       8   8   8
                       9   9   9
 22      1     5       3   3   3   3   3
                       6   6   6   6   6
                      10  10  10  10  10
                       2   2   2   2   2
 23      1     1       1
                       1
                       4
                       6
 24      1     3       7   7   7
                       5   5   5
                       1   1   1
                       3   3   3
 25      1     9       4   4   4   4   4   4   4   4   4
                       9   9   9   9   9   9   9   9   9
                       8   8   8   8   8   8   8   8   8
                       4   4   4   4   4   4   4   4   4
 26      1     2       8   8
                       5   5
                       1   1
                       7   7
 27      1     8      10  10  10  10  10  10  10   0
                       4   4   4   4   4   4   4   0
                       7   7   7   7   7   7   7   0
                       2   2   2   2   2   2   2   0
 28      1     6       1   1   1   1   1   1
                      10  10  10  10  10  10
                       6   6   6   6   6   6
                       9   9   9   9   9   9
 29      1     3       6   6   6
                       6   6   6
                       6   6   6
                      10  10  10
 30      1     5       6   6   6   6   6
                       6   6   6   6   6
                      10  10  10  10  10
                      10  10  10  10  10
 31      1     8       9   9   9   9   9   0   0   9
                       5   5   5   5   5   0   0   5
                       4   4   4   4   4   0   0   4
                       9   9   9   9   9   0   0   9
 32      1     0    
************************************************************************
RESOURCEAVAILABILITIES:
  R 1  R 2  R 3  R 4

  15  15  15  15  15  15  15  15  15  15  15  15  15  15  15  15  15  15   0  15  15  15  15  15  15  15  15  15  15  15  15  15  15  15  15   0  15  15  15  15  15  15  15  15  15  15  15  15  15  15  15  15  15  15  15  15  15  15   0  15  15  15  15  15  15  15  15  15  15  15  15  15  15   0  15  15  15  15  15  15  15  15  15  15  15  15  15  15  15  15   0  15  15  15  15  15   0  15  15  15  15  15  15  15  15  15  15  15  15  15  15  15  15  15  15  15  15  15  15  15  15  15  15  15  15  15  15  15  15  15  15   0  15  15  15  15  15  15  15  15  15  15  15  15  15  15  15  15  15  15  15  15  15  15  15  15  15  15  15  15  15  15  15  15  15  15  15  15  15   0  15  15  15  15  15  15  15  15  15  15

  15  15  15  15  15  15  15  15  15  15  15  15  15  15  15  15  15  15   0  15  15  15  15  15  15  15  15  15  15  15  15  15  15  15  15   0  15  15  15  15  15  15  15  15  15  15  15  15  15  15  15  15  15  15  15  15  15  15   0  15  15  15  15  15  15  15  15  15  15  15  15  15  15   0  15  15  15  15  15  15  15  15  15  15  15  15  15  15  15  15   0  15  15  15  15  15   0  15  15  15  15  15  15  15  15  15  15  15  15  15  15  15  15  15  15  15  15  15  15  15  15  15  15  15  15  15  15  15  15  15  15   0  15  15  15  15  15  15  15  15  15  15  15  15  15  15  15  15  15  15  15  15  15  15  15  15  15  15  15  15  15  15  15  15  15  15  15  15  15   0  15  15  15  15  15  15  15  15  15  15

  17  17  17  17  17  17  17  17  17  17  17  17  17  17  17  17  17  17   0  17  17  17  17  17  17  17  17  17  17  17  17  17  17  17  17   0  17  17  17  17  17  17  17  17  17  17  17  17  17  17  17  17  17  17  17  17  17  17   0  17  17  17  17  17  17  17  17  17  17  17  17  17  17   0  17  17  17  17  17  17  17  17  17  17  17  17  17  17  17  17   0  17  17  17  17  17   0  17  17  17  17  17  17  17  17  17  17  17  17  17  17  17  17  17  17  17  17  17  17  17  17  17  17  17  17  17  17  17  17  17  17   0  17  17  17  17  17  17  17  17  17  17  17  17  17  17  17  17  17  17  17  17  17  17  17  17  17  17  17  17  17  17  17  17  17  17  17  17  17   0  17  17  17  17  17  17  17  17  17  17

  16  16  16  16  16  16  16  16  16  16  16  16  16  16  16  16  16  16   0  16  16  16  16  16  16  16  16  16  16  16  16  16  16  16  16   0  16  16  16  16  16  16  16  16  16  16  16  16  16  16  16  16  16  16  16  16  16  16   0  16  16  16  16  16  16  16  16  16  16  16  16  16  16   0  16  16  16  16  16  16  16  16  16  16  16  16  16  16  16  16   0  16  16  16  16  16   0  16  16  16  16  16  16  16  16  16  16  16  16  16  16  16  16  16  16  16  16  16  16  16  16  16  16  16  16  16  16  16  16  16  16   0  16  16  16  16  16  16  16  16  16  16  16  16  16  16  16  16  16  16  16  16  16  16  16  16  16  16  16  16  16  16  16  16  16  16  16  16  16   0  16  16  16  16  16  16  16  16  16  16

************************************************************************
